
Gurobi 10.0.0 (win64, C++) logging started Sat Dec  2 08:48:37 2023

Set parameter TokenServer to value "141.30.89.215"
Warning: Gurobi version mismatch between C++ 10.0.3 and C library 10.0.0
Set parameter Threads to value 8
Set parameter LazyConstraints to value 1
Set parameter PreCrush to value 1
Set parameter TimeLimit to value 28800
Set parameter SolutionLimit to value 10000
Gurobi Optimizer version 10.0.0 build v10.0.0rc2 (win64)

CPU model: AMD EPYC 7513 32-Core Processor, instruction set [SSE2|AVX|AVX2]
Thread count: 16 physical cores, 16 logical processors, using up to 8 threads

Optimize a model with 139 rows, 256 columns and 724 nonzeros
Model fingerprint: 0xcadfa3dc
Variable types: 0 continuous, 256 integer (256 binary)
Coefficient statistics:
  Matrix range     [1e+00, 1e+00]
  Objective range  [8e+00, 6e+01]
  Bounds range     [1e+00, 1e+00]
  RHS range        [1e+00, 4e+00]

User MIP start produced solution with objective 333.464 (0.00s)
Loaded user MIP start with objective 333.464

Presolve removed 7 rows and 26 columns
Presolve time: 0.00s
Presolved: 132 rows, 230 columns, 662 nonzeros
Variable types: 0 continuous, 230 integer (230 binary)

Root relaxation: objective 2.487960e+02, 59 iterations, 0.01 seconds (0.00 work units)

    Nodes    |    Current Node    |     Objective Bounds      |     Work
 Expl Unexpl |  Obj  Depth IntInf | Incumbent    BestBd   Gap | It/Node Time

     0     0  248.79604    0    -  333.46418  248.79604  25.4%     -    0s
     0     0  250.13267    0   12  333.46418  250.13267  25.0%     -    0s
     0     0  251.73966    0    -  333.46418  251.73966  24.5%     -    2s
     0     0  252.94792    0    -  333.46418  252.94792  24.1%     -    2s
     0     0  265.27411    0   18  333.46418  265.27411  20.4%     -    2s
     0     0  267.49678    0   26  333.46418  267.49678  19.8%     -    2s
     0     0  272.14770    0   16  333.46418  272.14770  18.4%     -    2s
     0     0  273.51101    0    -  333.46418  273.51101  18.0%     -    2s
     0     0  274.47044    0   30  333.46418  274.47044  17.7%     -    2s
     0     0  275.15990    0   14  333.46418  275.15990  17.5%     -    2s
     0     0  276.43348    0   22  333.46418  276.43348  17.1%     -    2s
     0     0  276.56238    0    -  333.46418  276.56238  17.1%     -    2s
     0     0  277.63456    0    -  333.46418  277.63456  16.7%     -    2s
     0     0  277.66642    0    -  333.46418  277.66642  16.7%     -    3s
     0     0  277.80502    0   37  333.46418  277.80502  16.7%     -    3s
     0     0  278.35024    0   29  333.46418  278.35024  16.5%     -    3s
     0     0  278.63831    0   49  333.46418  278.63831  16.4%     -    3s
     0     0  278.92766    0   35  333.46418  278.92766  16.4%     -    3s
     0     0  278.93434    0   50  333.46418  278.93434  16.4%     -    3s
     0     0  278.93434    0   43  333.46418  278.93434  16.4%     -    3s
H    0     2                     308.8060816  278.93434  9.67%     -    3s
     0     2  279.60131    0   30  308.80608  279.60131  9.46%     -    3s
    44    54  281.96287    8   20  308.80608  281.10698  8.97%  18.9    5s
H  190   151                     308.5581768  281.10698  8.90%  12.0    7s
   719   588  300.79962   22   24  308.55818  284.10465  7.93%   9.2   10s
H  725   513                     302.0218782  284.10465  5.93%   9.2   10s
H 2079   894                     301.7428984  288.03171  4.54%   9.6   14s
  2301   929  291.74862   14   31  301.74290  289.32087  4.12%   9.5   15s
* 5207   477              21     301.6582384  296.85514  1.59%   9.8   18s

Cutting planes:
  User: 131
  Gomory: 19
  Clique: 1
  Zero half: 31
  Lazy constraints: 87

Explored 6062 nodes (60116 simplex iterations) in 18.84 seconds (1.48 work units)
Thread count was 8 (of 16 available processors)

Solution count 6: 301.658 301.743 302.022 ... 333.464

Optimal solution found (tolerance 1.00e-04)
Best objective 3.016582384371e+02, best bound 3.016582384371e+02, gap 0.0000%

User-callback calls 12670, time in user-callback 17.18 sec
### START EXACT APPROACH ###
ProblemVariant: 2
### START PREPROCESSING ###
## Start infeasible path procedure ## 
Deleted arcs: 10
Infeasible tail paths: 2
Infeasible 2-node combinations: 5
## Start extended infeasible path procedure ##
Deleted arcs: 10
Infeasible tail paths: 2
Infeasible 2-node combinations: 5
## Start start solution procedure ##
Start solution with 4 Vehicles and total costs 333.464 in 1.59196 s.
### END PREPROCESSING ###
Route 0 0-1-3-8-7-14-0 : weight util 0.955556 | volume util 0.654800 | infeasible with packing heuristic | feasible with CP model
Route 1 0-5-9-10-15-12-0 : weight util 0.844444 | volume util 0.568978 | feasible with packing heuristic | feasible with CP model
Route 2 0-6-13-4-0 : weight util 0.522222 | volume util 0.562511 | feasible with packing heuristic | feasible with CP model
Route 3 0-11-2-0 : weight util 0.544444 | volume util 0.355400 | feasible with packing heuristic | feasible with CP model
